12
53
58
13
11
39
16
25
75
74
5
61
1
67
3
29
46
68
60
50
43
17
23
62
0
72
32
15
2
48
22
55
40
42
41
63
21
27
73
20
47
26
51
45
33
44
28
35
70
36
14
7
18
34
6
52
10
65
64
37
30
9
57
71
38
8
54
24
49
31
66
4
59
69
19
56
